12 40 6 10
14 12 6 18 18 1 9 1 11 13 16 15 8 3 15 3 15 1 18 7 18 5 15 9 5 16 8 16 17 17 6 7 17 15 2 10 15 11 1 17 
9.89 6.07 5.99 7.5 15.12 9.33 4.06 2.54 14.78 3.88 13.19 6.4 10.79 13.79 12.44 15.1 10.74 0.78 3.96 14.37 1.2 14.33 7.31 5.08 11.83 5.92 7.65 3.72 1.08 2.44 5.71 1.08 11.49 11.62 5.45 8.77 14.45 6.08 1.2 1.4 
1.49 0.03 3.47 9.33 9.49 2.11 4.63 9.69 8.6 13.79 2.47 13.77 7.24 2.71 14.26 12.25 8.51 11.17 13.04 14.06 4.25 9.11 1.15 7.8 11.89 15.92 14.13 14.7 8.64 4.09 12.26 10.36 4.5 1.17 7.31 10.29 3.07 0.59 1.15 5.62 
0.76 10.33 15.66 10.28 2.34 2.16 4.6 14.94 15.36 9.46 15.84 1.88 13.93 15.05 2.87 8.64 12.53 12.34 4.26 12.09 6.12 15.11 7.26 15.9 5.39 9.94 10.91 12.05 9.52 15.35 10.62 0.91 1.63 0.85 13.69 13.83 8.1 4.23 14.4 7.84 
14.79 9.24 4.11 2.64 4.79 4.03 12.95 15.04 7.64 7.41 6.15 6.85 5.56 1.51 1.28 5.72 0.6 9.66 3.4 9.63 14.97 13.14 5.97 3.51 0.89 2.82 11.76 14.27 4.24 13.84 0.24 6.96 8.26 11.97 13 0.66 3.04 11.02 8.46 4.23 
15.78 5.07 8.4 13.3 8.13 5.97 10.25 0.25 1.33 7.05 6.23 13.02 1.21 14.93 11.69 14.81 6.9 11.98 0.36 15.6 8.66 7.02 10.11 5.04 14.93 8.29 5.04 8.81 10.68 8.03 1.63 10.59 10.93 14.97 2.72 0.44 7.77 10.44 7.66 1.42 
7.09 8.69 7.74 5.07 5.71 8.97 2.33 7.78 8.07 6.3 9.76 2.13 10.62 1.89 5.18 6.34 8.46 6.47 13.34 14.42 6.92 1.1 6.63 3.84 4.17 13.3 5.03 14.58 3.83 2.73 14.2 6 6.99 1.02 6.81 9.13 3.73 8.79 3.96 3.6 
8 8 8 8 8 8 8 8 8 8 8 8 8 8 8 8 8 8 8 8 8 8 8 8 8 8 8 8 8 8 8 8 8 8 8 8 8 8 8 8 
3.91 10.05 12.76 13.93 5.7 2.28 6.63 0.6 5.96 8.53 5.53 7.72 13.64 11.15 13.56 10.04 10.78 6.36 0.69 3.45 13.09 12.15 5.61 7.37 3.96 1.08 13.61 15.35 2.29 15.68 14.82 8.8 9.53 0.97 10.59 4.64 3.93 10.93 1.64 0.79 
15.35 6.66 8.97 2.17 9.37 5.68 2.96 14.21 9.52 6.55 4.3 7.33 1.86 9.49 2.89 10.19 6.43 15.58 5.19 13.87 4.68 14.6 6.66 7.66 1.37 9.96 12.49 9.02 15.13 15.25 4.24 11.99 10.2 4.53 4.99 7.52 13.63 4.09 4.65 12.07 
11.92 11.9 10.22 11.19 14.97 1.46 5.02 13.97 1.95 7.03 14.47 2.61 3.55 10.25 11.08 11.05 6.82 7.18 0.57 14.12 8.76 6.19 12.44 3.69 3.28 8.07 4.22 4.29 9.98 6.78 9.6 0.59 4.96 3.98 4.1 12.68 12.09 4.22 4.56 13.87 
1.89 4.65 9.24 2.54 0.93 15.92 12.24 10.13 0.67 12.72 10.01 1.88 8.93 1.15 11.7 8.61 2.9 10.82 0.59 6.53 5.92 11.13 7.58 11 1.77 5.91 9.22 12.63 5.29 0.43 0.7 0.79 4.24 13.81 14.42 11.99 10.51 10.42 15.69 1.82 
3.44 15.67 11.86 12.76 7.34 7.15 13.93 9.17 1.89 6.33 0.31 2.41 12.48 0.51 14.99 12.6 3.66 12.4 3.7 11.7 7.95 9.92 10.08 5.23 1.61 14.06 4.26 15.29 3.68 9.92 6.96 5.43 6.73 11.09 12.41 14.07 11.03 0.85 7.64 15.38 
1 1 1 1 1 1 1 1 1 1 1 1 1 1 1 1 1 1 1 1 1 1 1 1 1 1 1 1 1 1 1 1 1 1 1 1 1 1 1 1 
1 1 1 1 1 1 1 1 1 1 1 1 1 1 1 1 1 1 1 1 1 1 1 1 1 1 1 1 1 1 1 1 1 1 1 1 1 1 1 1 
1 1 1 1 1 1 1 1 1 1 1 1 1 1 1 1 1 1 1 1 1 1 1 1 1 1 1 1 1 1 1 1 1 1 1 1 1 1 1 1 
1 1 1 1 1 1 1 1 1 1 1 1 1 1 1 1 1 1 1 1 1 1 1 1 1 1 1 1 1 1 1 1 1 1 1 1 1 1 1 1 
1 1 1 1 1 1 1 1 1 1 1 1 1 1 1 1 1 1 1 1 1 1 1 1 1 1 1 1 1 1 1 1 1 1 1 1 1 1 1 1 
1 1 1 1 1 1 1 1 1 1 1 1 1 1 1 1 1 1 1 1 1 1 1 1 1 1 1 1 1 1 1 1 1 1 1 1 1 1 1 1 
1 1 1 1 1 1 1 1 1 1 1 1 1 1 1 1 1 1 1 1 1 1 1 1 1 1 1 1 1 1 1 1 1 1 1 1 1 1 1 1 
1 1 1 1 1 1 1 1 1 1 1 1 1 1 1 1 1 1 1 1 1 1 1 1 1 1 1 1 1 1 1 1 1 1 1 1 1 1 1 1 
1 1 1 1 1 1 1 1 1 1 1 1 1 1 1 1 1 1 1 1 1 1 1 1 1 1 1 1 1 1 1 1 1 1 1 1 1 1 1 1 
1 1 1 1 1 1 1 1 1 1 1 1 1 1 1 1 1 1 1 1 1 1 1 1 1 1 1 1 1 1 1 1 1 1 1 1 1 1 1 1 
1 1 1 1 1 1 1 1 1 1 1 1 1 1 1 1 1 1 1 1 1 1 1 1 1 1 1 1 1 1 1 1 1 1 1 1 1 1 1 1 
1 1 1 1 1 1 1 1 1 1 1 1 1 1 1 1 1 1 1 1 1 1 1 1 1 1 1 1 1 1 1 1 1 1 1 1 1 1 1 1 
0.01 0.01 0.01 0.01 0.01 0.01 0.01 0.01 0.01 0.01 0.01 0.01 0.01 0.01 0.01 0.01 0.01 0.01 0.01 0.01 0.01 0.01 0.01 0.01 0.01 0.01 0.01 0.01 0.01 0.01 0.01 0.01 0.01 0.01 0.01 0.01 0.01 0.01 0.01 0.01 
0.02 0.02 0.02 0.02 0.02 0.02 0.02 0.02 0.02 0.02 0.02 0.02 0.02 0.02 0.02 0.02 0.02 0.02 0.02 0.02 0.02 0.02 0.02 0.02 0.02 0.02 0.02 0.02 0.02 0.02 0.02 0.02 0.02 0.02 0.02 0.02 0.02 0.02 0.02 0.02 
0.03 0.03 0.03 0.03 0.03 0.03 0.03 0.03 0.03 0.03 0.03 0.03 0.03 0.03 0.03 0.03 0.03 0.03 0.03 0.03 0.03 0.03 0.03 0.03 0.03 0.03 0.03 0.03 0.03 0.03 0.03 0.03 0.03 0.03 0.03 0.03 0.03 0.03 0.03 0.03 
0.04 0.04 0.04 0.04 0.04 0.04 0.04 0.04 0.04 0.04 0.04 0.04 0.04 0.04 0.04 0.04 0.04 0.04 0.04 0.04 0.04 0.04 0.04 0.04 0.04 0.04 0.04 0.04 0.04 0.04 0.04 0.04 0.04 0.04 0.04 0.04 0.04 0.04 0.04 0.04 
0.05 0.05 0.05 0.05 0.05 0.05 0.05 0.05 0.05 0.05 0.05 0.05 0.05 0.05 0.05 0.05 0.05 0.05 0.05 0.05 0.05 0.05 0.05 0.05 0.05 0.05 0.05 0.05 0.05 0.05 0.05 0.05 0.05 0.05 0.05 0.05 0.05 0.05 0.05 0.05 
0.06 0.06 0.06 0.06 0.06 0.06 0.06 0.06 0.06 0.06 0.06 0.06 0.06 0.06 0.06 0.06 0.06 0.06 0.06 0.06 0.06 0.06 0.06 0.06 0.06 0.06 0.06 0.06 0.06 0.06 0.06 0.06 0.06 0.06 0.06 0.06 0.06 0.06 0.06 0.06 
0.07 0.07 0.07 0.07 0.07 0.07 0.07 0.07 0.07 0.07 0.07 0.07 0.07 0.07 0.07 0.07 0.07 0.07 0.07 0.07 0.07 0.07 0.07 0.07 0.07 0.07 0.07 0.07 0.07 0.07 0.07 0.07 0.07 0.07 0.07 0.07 0.07 0.07 0.07 0.07 
0.2 0.2 0.2 0.2 0.2 0.2 0.2 0.2 0.2 0.2 0.2 0.2 0.2 0.2 0.2 0.2 0.2 0.2 0.2 0.2 0.2 0.2 0.2 0.2 0.2 0.2 0.2 0.2 0.2 0.2 0.2 0.2 0.2 0.2 0.2 0.2 0.2 0.2 0.2 0.2 
0.4 0.4 0.4 0.4 0.4 0.4 0.4 0.4 0.4 0.4 0.4 0.4 0.4 0.4 0.4 0.4 0.4 0.4 0.4 0.4 0.4 0.4 0.4 0.4 0.4 0.4 0.4 0.4 0.4 0.4 0.4 0.4 0.4 0.4 0.4 0.4 0.4 0.4 0.4 0.4 
0.6 0.6 0.6 0.6 0.6 0.6 0.6 0.6 0.6 0.6 0.6 0.6 0.6 0.6 0.6 0.6 0.6 0.6 0.6 0.6 0.6 0.6 0.6 0.6 0.6 0.6 0.6 0.6 0.6 0.6 0.6 0.6 0.6 0.6 0.6 0.6 0.6 0.6 0.6 0.6 
0.8 0.8 0.8 0.8 0.8 0.8 0.8 0.8 0.8 0.8 0.8 0.8 0.8 0.8 0.8 0.8 0.8 0.8 0.8 0.8 0.8 0.8 0.8 0.8 0.8 0.8 0.8 0.8 0.8 0.8 0.8 0.8 0.8 0.8 0.8 0.8 0.8 0.8 0.8 0.8 
1 1 1 1 1 1 1 1 1 1 1 1 1 1 1 1 1 1 1 1 1 1 1 1 1 1 1 1 1 1 1 1 1 1 1 1 1 1 1 1 
